Creating DSP environment
Reading SMPS files: ../SMPS/DCAP/DCAP_2_4_3_300
Coin0001I At line 1 NAME          DCAP_2_4_3_300
Coin0001I At line 2 ROWS
Coin0001I At line 28 COLUMNS
Coin0001I At line 111 RHS
Coin0001I At line 124 BOUNDS
Coin0001I At line 167 ENDATA
Coin0002I Problem DCAP_2_4_3_300 has 24 rows, 48 columns and 84 elements
Coin0001I At line 1 TIME          DCAP_2_4_3_300
Coin0001I At line 2 PERIODS       IMPLICIT
Coin0001I At line 5 ENDATA

Coin0001I At line 1 STOCH         DCAP_2_4_3_300
Coin0001I At line 2 SCENARIOS
Coin0001I At line 18243 ENDATA
Read SMPS files: 0.009 sec.
Reading parameter files: /home/choy/Siplib/experiment/DSP/parameters/de_3h.txt
Invalid parameter format.
CPX0000  CPXPARAM_Advance                                 0
CPX0000  CPXPARAM_TimeLimit                               300
CPX0000  CPXPARAM_Threads                                 1
CPX0000  Found incumbent of value 9049.581753 after 0.00 sec. (0.61 ticks)
CPX0000  Tried aggregator 1 time.
CPX0000  MIP Presolve eliminated 645 rows and 1839 columns.
CPX0000  Reduced MIP has 4761 rows, 8973 columns, and 18515 nonzeros.
CPX0000  Reduced MIP has 8967 binaries, 0 generals, 0 SOSs, and 0 indicators.
CPX0000  Presolve time = 0.02 sec. (11.71 ticks)
CPX0000  Probing time = 0.00 sec. (5.58 ticks)
CPX0000  Tried aggregator 1 time.
CPX0000  Reduced MIP has 4761 rows, 8973 columns, and 18515 nonzeros.
CPX0000  Reduced MIP has 8967 binaries, 0 generals, 0 SOSs, and 0 indicators.
CPX0000  Presolve time = 0.02 sec. (13.04 ticks)
CPX0000  Probing time = 0.00 sec. (5.58 ticks)
CPX0000  Clique table members: 5441.
CPX0000  MIP emphasis: balance optimality and feasibility.
CPX0000  MIP search method: dynamic search.
CPX0000  Parallel mode: none, using 1 thread.
CPX0000  Root relaxation solution time = 0.03 sec. (48.49 ticks)
CPX0000
CPX0000          Nodes                                         Cuts/
CPX0000     Node  Left     Objective  IInf  Best Integer    Best Bound    ItCnt     Gap
CPX0000
CPX0000  *     0+    0                         9049.5818     1528.2122            83.11%
CPX0000        0     0     2012.5816  1665     9049.5818     2012.5816     1798   77.76%
CPX0000  *     0+    0                         2972.8781     2012.5816            32.30%
CPX0000  *     0+    0                         2667.9176     2012.5816            24.56%
CPX0000        0     0     2331.2592  1267     2667.9176    Cuts: 1290     3318   12.62%
CPX0000  *     0+    0                         2566.1165     2331.2592             9.15%
CPX0000        0     0     2487.9434   583     2566.1165    Cuts: 1290     4335    3.05%
CPX0000  *     0+    0                         2528.9134     2487.9434             1.62%
CPX0000        0     0     2495.0096   625     2528.9134     Cuts: 692     4495    1.34%
CPX0000  *     0+    0                         2524.8403     2495.0096             1.18%
CPX0000  *     0+    0                         2523.2752     2495.0096             1.12%
CPX0000  *     0+    0                         2521.6379     2495.0096             1.06%
CPX0000  *     0+    0                         2521.0820     2495.0096             1.03%
CPX0000  *     0+    0                         2520.9267     2495.0096             1.03%
CPX0000        0     0     2496.9321   601     2520.9267     Cuts: 607     4626    0.95%
CPX0000        0     0     2497.0738   642     2520.9267     Cuts: 357     4733    0.95%
CPX0000        0     0     2501.4079   617     2520.9267     Cuts: 290     4800    0.77%
CPX0000        0     0     2502.9689   553     2520.9267     Cuts: 290     4881    0.71%
CPX0000        0     0     2505.9001   556     2520.9267     Cuts: 326     4937    0.60%
CPX0000  *     0+    0                         2519.3072     2505.9001             0.53%
CPX0000        0     0     2508.3949   425     2519.3072     Cuts: 223     5052    0.43%
CPX0000        0     0     2510.7293   385     2519.3072     Cuts: 381     5120    0.34%
CPX0000  *     0+    0                         2518.6810     2510.7293             0.32%
CPX0000        0     0     2511.5311   386     2518.6810     Cuts: 424     5139    0.28%
CPX0000  *     0+    0                         2517.7711     2511.5311             0.25%
CPX0000        0     0     2512.7142   390     2517.7711     Cuts: 410     5176    0.20%
CPX0000  *     0+    0                         2516.9834     2512.7142             0.17%
CPX0000        0     0     2512.7649   380     2516.9834     Cuts: 153     5211    0.17%
CPX0000  *     0+    0                         2515.7598     2512.7649             0.12%
CPX0000        0     0     2512.8345   405     2515.7598     Cuts: 341     5329    0.12%
CPX0000  *     0+    0                         2514.3930     2512.8345             0.06%
CPX0000  *     0+    0                         2514.3463     2512.8345             0.06%
CPX0000  *     0+    0                         2514.2953     2512.8345             0.06%
CPX0000  *     0+    0                         2514.2228     2512.8345             0.06%
CPX0000  *     0+    0                         2514.0848     2512.8345             0.05%
CPX0000  *     0+    0                         2514.0200     2512.8345             0.05%
CPX0000  *     0+    0                         2514.0161     2512.8345             0.05%
CPX0000  *     0+    0                         2513.9855     2512.8345             0.05%
CPX0000  *     0+    0                         2513.8700     2512.8345             0.04%
CPX0000  *     0+    0                         2513.8662     2512.8345             0.04%
CPX0000  *     0+    0                         2513.8280     2512.8345             0.04%
CPX0000        0     2     2512.8345   405     2513.8280     2512.8387     5329    0.04%
CPX0000  Elapsed time = 1.69 sec. (1470.84 ticks, tree = 0.01 MB
CPX0000       49    44        cutoff           2513.8280     2512.8992     6415    0.04%
CPX0000      110    92     2513.5809   164     2513.8280     2512.9034     6866    0.04%
CPX0000      178   138     2513.1387   445     2513.8280     2512.9178     7477    0.04%
CPX0000      248   183        cutoff           2513.8280     2512.9244     8539    0.04%
CPX0000      318   248     2513.7723   146     2513.8280     2512.9247     8965    0.04%
CPX0000      380   295     2513.7887   184     2513.8280     2512.9289     9261    0.04%
CPX0000      451   338     2513.6555   282     2513.8280     2512.9391    10344    0.04%
CPX0000      534   398     2513.7953   140     2513.8280     2512.9398    11148    0.04%
CPX0000      629   463     2513.0021   366     2513.8280     2512.9502    12346    0.03%
CPX0000  *   916+  448                         2513.8182     2513.0175             0.03%
CPX0000  *   916+  298                         2513.7707     2513.0175             0.03%
CPX0000      916   299     2513.0175   204     2513.7707     2513.0180    16367    0.03%
CPX0000  Elapsed time = 5.79 sec. (5685.28 ticks, tree = 1.24 MB
CPX0000      942   249     2513.2986   136     2513.7707     2513.0245    17122    0.03%
CPX0000  *  1046+  105                         2513.6429     2513.0931             0.02%
CPX0000     1094   100     2513.5736    93     2513.6429     2513.1268    18916    0.02%
CPX0000  *  1146+   48                         2513.5553     2513.1377             0.02%
CPX0000  *  1316+  126                         2513.5429     2513.2054             0.01%
CPX0000  *  1346+  117                         2513.5089     2513.2054             0.01%
CPX0000
CPX0000  Clique cuts applied:  99
CPX0000  Cover cuts applied:  662
CPX0000  Flow cuts applied:  110
CPX0000  Mixed integer rounding cuts applied:  146
CPX0000  Zero-half cuts applied:  316
CPX0000  Lift and project cuts applied:  7
CPX0000  Gomory fractional cuts applied:  220
CPX0000
CPX0000  Root node processing (before b&c):
CPX0000    Real time             =    1.69 sec. (1459.75 ticks)
CPX0000  Sequential b&c:
CPX0000    Real time             =    6.58 sec. (7045.02 ticks)
CPX0000                            ------------
CPX0000  Total (root+branch&cut) =    8.27 sec. (8504.77 ticks)
Status: 3000
Primal Bound: 2513.51
Dual Bound  : 2513.51
